NAME : rnd35_50.tsp
TYPE : TSP
DIMENSION : 50
EDGE_WEIGHT_TYPE : EUC_2D
NODE_COORD_SECTION
1 554 465
2 29 519
3 92 219
4 748 992
5 674 412
6 665 436
7 268 563
8 849 586
9 767 470
10 813 908
11 573 91
12 383 129
13 211 305
14 477 111
15 106 891
16 195 209
17 841 484
18 101 720
19 849 758
20 92 483
21 46 450
22 864 240
23 145 407
24 491 368
25 726 132
26 913 541
27 401 274
28 794 72
29 516 875
30 407 222
31 86 49
32 647 925
33 350 851
34 62 982
35 131 261
36 920 764
37 335 462
38 682 459
39 40 334
40 654 189
41 638 351
42 671 151
43 461 819
44 598 822
45 993 671
46 829 863
47 431 341
48 964 360
49 938 566
50 576 715
